(set-info :smt-lib-version 2.6)
(set-logic QF_UFLRA)
(set-info :source |
MathSat group

|)
(set-info :category "random")
(set-info :status unsat)
(declare-fun x0 () Real)
(declare-fun x1 () Real)
(declare-fun x2 () Real)
(declare-fun x3 () Real)
(declare-fun x4 () Real)
(declare-fun x5 () Real)
(declare-fun x6 () Real)
(declare-fun x7 () Real)
(declare-fun x8 () Real)
(declare-fun x9 () Real)
(declare-fun x10 () Real)
(declare-fun x11 () Real)
(declare-fun x12 () Real)
(declare-fun x13 () Real)
(declare-fun x14 () Real)
(declare-fun x15 () Real)
(declare-fun x16 () Real)
(declare-fun x17 () Real)
(declare-fun x18 () Real)
(declare-fun x19 () Real)
(declare-fun x20 () Real)
(declare-fun x21 () Real)
(declare-fun x22 () Real)
(declare-fun x23 () Real)
(declare-fun x24 () Real)
(declare-fun x25 () Real)
(declare-fun x26 () Real)
(declare-fun x27 () Real)
(declare-fun x28 () Real)
(declare-fun x29 () Real)
(declare-fun f0_1 (Real) Real)
(declare-fun f0_2 (Real Real) Real)
(declare-fun f0_3 (Real Real Real) Real)
(declare-fun f0_4 (Real Real Real Real) Real)
(declare-fun P0 () Bool)
(declare-fun P1 () Bool)
(declare-fun P2 () Bool)
(declare-fun P3 () Bool)
(declare-fun P4 () Bool)
(declare-fun P5 () Bool)
(declare-fun P6 () Bool)
(declare-fun P7 () Bool)
(declare-fun P8 () Bool)
(declare-fun P9 () Bool)
(declare-fun P10 () Bool)
(declare-fun P11 () Bool)
(declare-fun P12 () Bool)
(declare-fun P13 () Bool)
(declare-fun P14 () Bool)
(declare-fun P15 () Bool)
(declare-fun P16 () Bool)
(declare-fun P17 () Bool)
(declare-fun P18 () Bool)
(declare-fun P19 () Bool)
(declare-fun P20 () Bool)
(declare-fun P21 () Bool)
(declare-fun P22 () Bool)
(declare-fun P23 () Bool)
(declare-fun P24 () Bool)
(declare-fun P25 () Bool)
(declare-fun P26 () Bool)
(declare-fun P27 () Bool)
(declare-fun P28 () Bool)
(declare-fun P29 () Bool)
(assert (let ((?v_3 (* 7 x16)) (?v_108 (= (- (- (* 42 x4) (* 10 x21)) (* 15 x15)) 4)) (?v_76 (< (- (+ (* 21 x26) (* 34 x21)) (* 18 x18)) 31)) (?v_102 (< (- (- (* 20 x29) (* 13 x13)) (* 11 x17)) 14)) (?v_4 (* 17 x27)) (?v_52 (<= (- (+ (* 36 x21) (* 9 x22)) (* 25 x21)) 12))) (let ((?v_18 (<= (- (- (* 7 x6) (* 22 x3)) ?v_4) 20)) (?v_50 (< (- (+ (* 33 x23) (* 28 x20)) (* 2 x27)) 15)) (?v_9 (= x25 (f0_1 x18))) (?v_87 (distinct x17 (f0_1 x7))) (?v_81 (= x13 x17)) (?v_24 (= (f0_1 x4) x13)) (?v_27 (= x5 x29)) (?v_5 (f0_1 x2))) (let ((?v_57 (= (f0_2 x27 x8) ?v_5)) (?v_37 (= (f0_1 x27) x18)) (?v_30 (= x26 x15)) (?v_137 (distinct (f0_2 x10 x24) x28)) (?v_82 (= x27 (f0_2 x29 x28))) (?v_107 (= x19 (f0_2 x2 x26))) (?v_26 (distinct (f0_1 x8) (f0_2 x24 x21))) (?v_56 (= x4 x2)) (?v_103 (= x5 x22)) (?v_31 (distinct (f0_2 x2 x0) (f0_2 x2 x23))) (?v_1 (distinct x9 x18)) (?v_44 (distinct (f0_2 x5 x12) x18)) (?v_138 (distinct x29 (f0_2 x8 x6))) (?v_20 (f0_1 x13))) (let ((?v_58 (distinct (f0_2 x1 x18) ?v_20)) (?v_85 (= x1 x20)) (?v_69 (= (f0_2 x13 x27) (f0_2 x15 x22))) (?v_49 (= x15 (f0_2 x18 x7))) (?v_120 (distinct x4 (f0_2 x10 x4))) (?v_45 (distinct (f0_2 x20 x2) (f0_1 x26))) (?v_83 (= ?v_5 (f0_1 x17))) (?v_8 (= x8 x28)) (?v_90 (distinct x8 x4)) (?v_119 (distinct ?v_20 x9)) (?v_47 (distinct x14 (f0_2 x25 x14)))) (let ((?v_32 (not ?v_85)) (?v_124 (not ?v_8)) (?v_7 (not ?v_87)) (?v_23 (not ?v_30)) (?v_70 (not P29)) (?v_74 (not ?v_76)) (?v_15 (not ?v_81)) (?v_99 (not ?v_83)) (?v_68 (not P26)) (?v_75 (not P16)) (?v_35 (not P28)) (?v_111 (not ?v_138)) (?v_100 (not P21)) (?v_53 (not ?v_52)) (?v_54 (not P13)) (?v_6 (not P1)) (?v_59 (not P8)) (?v_143 (not ?v_1)) (?v_140 (not P14)) (?v_12 (not P23)) (?v_14 (not P11)) (?v_13 (not ?v_103)) (?v_95 (not P22)) (?v_34 (not P15)) (?v_105 (not ?v_44)) (?v_89 (not ?v_119)) (?v_39 (not ?v_18)) (?v_129 (not ?v_137)) (?v_130 (not P17)) (?v_36 (not P20)) (?v_117 (not ?v_31)) (?v_60 (not ?v_90)) (?v_38 (not P4)) (?v_51 (not ?v_108)) (?v_101 (not ?v_37)) (?v_41 (not P12)) (?v_55 (not ?v_24)) (?v_48 (not P6)) (?v_67 (not ?v_107)) (?v_73 (not ?v_47)) (?v_91 (not P18)) (?v_65 (not P7)) (?v_121 (not ?v_56)) (?v_64 (not ?v_57)) (?v_135 (not ?v_58)) (?v_96 (not P5)) (?v_78 (not P10)) (?v_110 (not ?v_69)) (?v_80 (not ?v_50)) (?v_84 (not P27)) (?v_86 (not P2)) (?v_126 (not ?v_26)) (?v_97 (not P3)) (?v_112 (not P19)) (?v_113 (not ?v_49)) (?v_141 (not P25)) (?v_139 (not ?v_9)) (?v_146 (not ?v_45)) (?v_144 (not ?v_120)) (?v_132 (not ?v_82)) (?v_145 (not (= (f0_2 x24 x25) x3))) (?v_150 (not ?v_102)) (?v_148 (not P0)) (?v_134 (not P24)) (?v_153 (or ?v_8 P5)) (?v_149 (not ?v_27)) (?v_151 (not P9)) (?v_0 (< (- (- 0 (* 28 x3)) (* 27 x22)) 37))) (let ((?v_88 (not ?v_0)) (?v_2 (distinct (- (- 0 ?v_4) (* 35 x12)) 28)) (?v_19 (<= (- (* 20 x15) (* 23 x14)) 12))) (let ((?v_106 (not ?v_19)) (?v_125 (not ?v_2)) (?v_93 (<= (+ (- 0 (* 20 x26)) (* 3 x18)) 0))) (let ((?v_104 (not ?v_93)) (?v_63 (= (+ (* 4 x7) (* 20 x18) (* 16 x29)) (- 26)))) (let ((?v_11 (not ?v_63)) (?v_136 (<= (- (- x28 (* 24 x28)) (* 12 x10)) (- 7)))) (let ((?v_43 (not ?v_136)) (?v_10 (<= (+ (- (* (- 36) x5) (* 8 x3)) (* 25 x19)) (- 32))) (?v_79 (<= (- (+ (* (- 1) x27) (* 23 x11)) (* 18 x23)) (- 8)))) (let ((?v_21 (not ?v_79)) (?v_25 (< (- (+ (* (- 18) x27) (* 39 x29)) (* 13 x26)) 38)) (?v_17 (< (+ (* (- 17) x25) (* 39 x14)) (- 26))) (?v_22 (<= (- (+ (* (- 3) x3) (* 11 x13)) (* 19 x17)) (- 15))) (?v_66 (<= (+ (- ?v_3 ?v_3) (* 2 x18)) (- 30)))) (let ((?v_94 (not ?v_66)) (?v_98 (< (- (- (* (- 34) x8) (* 13 x16)) (* 20 x16)) 11)) (?v_123 (< (+ (* 28 x5) (* 17 x21)) (- 6)))) (let ((?v_16 (not ?v_123)) (?v_33 (<= (+ (- (* (- 6) x24) (* 23 x27)) (* 26 x20)) (- 29)))) (let ((?v_40 (not ?v_33)) (?v_109 (not ?v_10)) (?v_42 (not ?v_17)) (?v_46 (<= (- (+ (* (- 29) x1) (* 23 x7)) (* 6 x15)) (- 37))) (?v_28 (not ?v_22)) (?v_29 (<= (+ (* 37 x21) (* 36 x6) (* 25 x17)) (- 25))) (?v_133 (< (+ (- (* 42 x26) (* 8 x12)) (* 22 x5)) (- 31))) (?v_61 (< (- (- (* (- 34) x29) (* 8 x2)) (* 12 x20)) (- 26))) (?v_62 (<= (+ (* (- 27) x29) (* 8 x28) (* 13 x8)) 36)) (?v_72 (<= (- (- (* 9 x14) (* 7 x8)) (* 30 x10)) (- 23)))) (let ((?v_77 (not ?v_46)) (?v_131 (<= (+ (- (* (- 4) x10) (* 23 x21)) (* 14 x16)) (- 44)))) (let ((?v_71 (not ?v_131)) (?v_115 (not ?v_62)) (?v_122 (not ?v_72)) (?v_128 (< (- (- (* 35 x24) (* 25 x26)) (* 32 x25)) (- 1)))) (let ((?v_92 (not ?v_128)) (?v_114 (not ?v_98)) (?v_116 (not ?v_29)) (?v_118 (<= (+ (* (- 30) x23) (* 8 x24) (* 21 x27)) 42))) (let ((?v_127 (not ?v_118)) (?v_142 (not ?v_61)) (?v_147 (not ?v_133)) (?v_152 (not ?v_25))) (and (and (and (and (and (and (and (and (and (and (and (and (and (and (and (and (and (and (and (and (and (and (and (and (and (and (and (and (and (and (and (and (and (and (and (and (and (and (and (and (and (and (and (and (and (and (and (and (and (and (and (and (and (and (and (and (and (and (and (and (and (and (and (and (and (and (and (and (and (and (and (and (and (and (and (and (and (and (and (and (and (and (and (and (and (and (and (and (and (and (and (and (and (and (and (and (and (and (and (and (and (and (and (and (and (and (and (and (and (and (and (and (and (and (and (and (and (and (and (and (and (and (and (and (and (and (and (and (and (and (and (and (and (and (and (and (and (and (and (and (and (and (and (and (and (and (and (and (and (and (and (and (and (and (and (and (and (and (and (and (and (and (and (and (and (and (and (and (and (and (and (and (and (and (and (and (and (and (and (and (and (and (and (and (and (and (and (and (and (and (and (and (and (and (and (and (and (and (and (and (and (and (and (and (and (and (and (and (and (and (and (and (and (and (and (and (and (and (and (and (and (and (and (and (and (and (and (and (and (and (and (and (and (and (and (and (and (and (and (and (and (and (and (and (and (and (and (and (and (and (and (and (and (and (and (and (and (and (and (and (and (and (and (and (and (and (and (and (and (and (and (and (and (and (and (and (and (and (and (and (and (and (and (and (and (and (and (and (and (and (and (and (and (and (and (and (and (and (and (and (and (and (and (and (and (and (and (and (and (and (and (and (and (and (and (and (and (and (and (and (and (and (and (and (and (and (and (and (and (and (and (and (and (and (and (and (and (and (and (and (and (and (and (and (and (and (and (and (and (and (and (and (and (and (and (and (and (and (and (and (and (and (and (and (and (and (and (and (and (and (and (and (and (and (and (and (and (and (and (and (and (and (and (and (and (and (and (and (and (and (and (and (and (and (and (and (and (and (and (and (and (and (and (and (and (and (and (and (and (and (and (and (and (and (and (and (and (and (and (and (and (and (and (and (and (and (and (and (and (and (and (and (and (and (and (and (and (and (and (and (and (and (and (and (and (and (and (and (and (or (or ?v_0 ?v_32) ?v_124) (or (or ?v_7 ?v_23) ?v_88)) (or (or ?v_11 ?v_70) ?v_49)) (or (or ?v_1 ?v_1) ?v_74)) (or (or P27 ?v_15) ?v_99)) (or (or ?v_2 ?v_43) ?v_68)) (or (or ?v_75 ?v_35) ?v_2)) (or (or ?v_10 ?v_111) ?v_21)) (or (or ?v_25 ?v_17) ?v_100)) (or (or ?v_9 P3) ?v_53)) (or (or ?v_22 ?v_94) ?v_54)) (or (or ?v_50 ?v_98) ?v_18)) (or (or ?v_6 ?v_57) P23)) (or (or P17 ?v_59) ?v_6)) (or (or ?v_7 ?v_143) ?v_16)) (or (or ?v_8 ?v_82) ?v_140)) (or (or ?v_27 ?v_12) ?v_14)) (or (or ?v_40 ?v_9) P27)) (or (or P14 ?v_13) ?v_109)) (or (or ?v_95 ?v_11) ?v_12)) (or (or ?v_13 ?v_34) ?v_26)) (or (or ?v_14 ?v_19) P25)) (or (or ?v_15 P23) ?v_16)) (or (or P27 ?v_42) P6)) (or (or ?v_105 ?v_89) ?v_39)) (or (or ?v_19 ?v_58) P24)) (or (or ?v_46 ?v_37) ?v_21)) (or (or ?v_13 ?v_19) ?v_129)) (or (or ?v_130 ?v_28) ?v_19)) (or (or ?v_24 ?v_106) ?v_23)) (or (or ?v_24 ?v_25) ?v_0)) (or (or P8 ?v_26) ?v_27)) (or (or ?v_26 ?v_28) ?v_29)) (or (or P5 ?v_36) ?v_29)) (or (or ?v_133 ?v_61) ?v_69)) (or (or ?v_30 ?v_117) ?v_45)) (or (or ?v_60 ?v_18) ?v_31)) (or (or ?v_32 ?v_38) P6)) (or (or P15 ?v_33) ?v_16)) (or (or ?v_51 ?v_62) ?v_24)) (or (or ?v_23 ?v_34) ?v_35)) (or (or ?v_56 ?v_36) ?v_19)) (or (or ?v_72 ?v_101) ?v_24)) (or (or ?v_38 P8) P25)) (or (or ?v_41 ?v_39) ?v_40)) (or (or P25 ?v_55) ?v_34)) (or (or ?v_48 ?v_41) P15)) (or (or ?v_42 P12) ?v_47)) (or (or ?v_67 P21) ?v_43)) (or (or ?v_44 ?v_36) ?v_45)) (or (or ?v_77 ?v_73) ?v_91)) (or (or P19 ?v_48) ?v_49)) (or (or P8 ?v_50) P13)) (or (or ?v_12 ?v_25) ?v_65)) (or (or ?v_51 ?v_102) ?v_52)) (or (or ?v_53 ?v_6) ?v_54)) (or (or ?v_40 ?v_55) P29)) (or (or ?v_47 P5) ?v_121)) (or (or ?v_64 ?v_55) ?v_135)) (or (or ?v_22 ?v_12) P17)) (or (or ?v_59 P26) P25)) (or (or ?v_45 P4) ?v_60)) (or (or ?v_58 ?v_71) P17)) (or (or ?v_61 ?v_62) ?v_63)) (or (or ?v_44 ?v_96) P28)) (or (or ?v_64 ?v_65) ?v_66)) (or (or ?v_57 ?v_63) ?v_2)) (or (or ?v_125 ?v_46) ?v_24)) (or (or P20 ?v_62) ?v_67)) (or (or ?v_68 ?v_78) P14)) (or (or ?v_110 P5) ?v_14)) (or (or P17 ?v_37) ?v_70)) (or (or ?v_80 ?v_71) ?v_84)) (or (or ?v_86 ?v_67) P15)) (or (or P6 ?v_57) ?v_16)) (or (or P14 ?v_55) ?v_21)) (or (or ?v_72 ?v_19) ?v_43)) (or (or P10 ?v_73) ?v_54)) (or (or ?v_0 ?v_55) P19)) (or (or ?v_74 ?v_115) ?v_126)) (or (or P12 ?v_122) ?v_36)) (or (or ?v_52 ?v_92) ?v_75)) (or (or ?v_21 ?v_32) P1)) (or (or ?v_31 P15) P18)) (or (or ?v_76 ?v_97) ?v_38)) (or (or ?v_31 ?v_77) ?v_78)) (or (or P8 ?v_16) ?v_73)) (or (or ?v_79 ?v_28) ?v_12)) (or (or ?v_71 ?v_2) ?v_80)) (or (or ?v_81 ?v_82) ?v_38)) (or (or P20 ?v_8) ?v_83)) (or (or ?v_49 ?v_112) ?v_16)) (or (or P13 ?v_84) ?v_55)) (or (or ?v_52 ?v_61) P4)) (or (or ?v_1 ?v_64) P4)) (or (or ?v_73 ?v_26) ?v_44)) (or (or ?v_80 P3) ?v_19)) (or (or ?v_39 ?v_59) ?v_113)) (or (or P3 ?v_26) ?v_85)) (or (or ?v_6 ?v_67) ?v_104)) (or (or ?v_6 ?v_40) ?v_11)) (or (or ?v_17 ?v_66) ?v_70)) (or (or P10 ?v_86) ?v_141)) (or (or ?v_76 ?v_12) P27)) (or (or ?v_23 ?v_87) ?v_85)) (or (or ?v_88 P26) ?v_71)) (or (or ?v_65 ?v_89) P1)) (or (or ?v_1 P9) ?v_57)) (or (or ?v_69 ?v_90) P10)) (or (or ?v_10 P2) ?v_75)) (or (or P12 ?v_25) P20)) (or (or ?v_44 P23) P29)) (or (or P11 ?v_91) ?v_33)) (or (or ?v_27 ?v_139) ?v_83)) (or (or ?v_78 ?v_146) ?v_92)) (or (or ?v_93 ?v_84) P13)) (or (or P10 ?v_64) ?v_33)) (or (or P18 P15) ?v_94)) (or (or ?v_82 ?v_33) ?v_95)) (or (or ?v_37 ?v_61) ?v_96)) (or (or ?v_25 ?v_50) ?v_33)) (or (or P10 ?v_97) ?v_114)) (or (or ?v_99 P6) P18)) (or (or ?v_28 ?v_116) ?v_87)) (or (or ?v_2 P8) P3)) (or (or ?v_100 ?v_101) ?v_32)) (or (or ?v_28 ?v_102) ?v_103)) (or (or P13 P19) ?v_104)) (or (or ?v_105 P7) ?v_46)) (or (or ?v_51 ?v_52) ?v_106)) (or (or P27 ?v_13) ?v_67)) (or (or ?v_35 ?v_81) ?v_107)) (or (or ?v_35 ?v_91) ?v_54)) (or (or ?v_83 ?v_48) ?v_80)) (or (or P12 ?v_108) P16)) (or (or ?v_51 P6) ?v_11)) (or (or ?v_53 ?v_0) ?v_109)) (or (or ?v_118 ?v_110) P10)) (or (or P17 P15) ?v_111)) (or (or ?v_57 ?v_85) ?v_144)) (or (or ?v_112 ?v_108) ?v_29)) (or (or ?v_73 ?v_81) ?v_30)) (or (or ?v_102 ?v_111) P18)) (or (or ?v_113 ?v_104) ?v_58)) (or (or ?v_114 ?v_103) P20)) (or (or ?v_115 ?v_29) P25)) (or (or ?v_116 ?v_117) P22)) (or (or ?v_28 ?v_26) ?v_64)) (or (or ?v_56 P7) ?v_78)) (or (or ?v_54 P13) ?v_118)) (or (or ?v_132 ?v_1) ?v_14)) (or (or P10 P8) ?v_96)) (or (or ?v_41 P15) P24)) (or (or ?v_119 ?v_113) ?v_145)) (or (or ?v_58 ?v_12) ?v_52)) (or (or ?v_86 ?v_84) ?v_83)) (or (or ?v_48 ?v_97) ?v_120)) (or (or ?v_97 ?v_38) ?v_76)) (or (or ?v_121 ?v_120) ?v_24)) (or (or ?v_120 ?v_50) P19)) (or (or P2 ?v_74) ?v_122)) (or (or ?v_108 ?v_35) ?v_46)) (or (or ?v_69 ?v_60) ?v_122)) (or (or ?v_123 ?v_124) P26)) (or (or ?v_127 ?v_14) ?v_113)) (or (or P13 ?v_114) ?v_69)) (or (or ?v_52 ?v_57) ?v_99)) (or (or ?v_78 ?v_109) ?v_104)) (or (or ?v_66 ?v_39) ?v_125)) (or (or ?v_28 ?v_82) ?v_18)) (or (or P4 ?v_118) ?v_111)) (or (or P10 ?v_126) P1)) (or (or ?v_123 P24) ?v_91)) (or (or ?v_101 ?v_37) ?v_16)) (or (or ?v_119 ?v_17) ?v_63)) (or (or ?v_72 ?v_113) P19)) (or (or ?v_26 ?v_29) ?v_123)) (or (or ?v_127 P13) ?v_44)) (or (or ?v_101 ?v_91) ?v_50)) (or (or ?v_111 ?v_24) ?v_128)) (or (or ?v_122 ?v_124) ?v_50)) (or (or ?v_30 ?v_105) ?v_70)) (or (or ?v_129 ?v_130) ?v_112)) (or (or ?v_46 ?v_142) P19)) (or (or ?v_107 ?v_18) ?v_131)) (or (or ?v_124 ?v_150) P2)) (or (or ?v_148 ?v_9) ?v_132)) (or (or ?v_100 ?v_21) P3)) (or (or ?v_49 ?v_10) ?v_108)) (or (or ?v_147 ?v_125) ?v_31)) (or (or ?v_122 ?v_134) ?v_70)) (or (or ?v_134 ?v_110) ?v_135)) (or (or ?v_63 ?v_128) ?v_136)) (or (or ?v_14 ?v_121) ?v_108)) (or (or ?v_74 P10) ?v_70)) (or (or ?v_136 ?v_21) ?v_110)) (or (or ?v_45 ?v_80) ?v_56)) (or (or ?v_77 ?v_67) ?v_94)) (or (or ?v_137 ?v_95) P24)) (or (or ?v_100 ?v_70) P15)) (or (or ?v_27 P1) ?v_64)) (or (or ?v_83 ?v_45) ?v_67)) (or (or P13 ?v_65) ?v_138)) (or (or P19 ?v_139) ?v_57)) (or (or ?v_140 ?v_59) ?v_15)) (or (or ?v_39 ?v_29) ?v_123)) (or (or ?v_39 ?v_42) ?v_88)) (or (or ?v_24 ?v_141) P2)) (or (or ?v_37 ?v_142) ?v_44)) (or (or ?v_120 ?v_120) P14)) (or (or ?v_128 ?v_62) ?v_63)) (or (or P20 ?v_59) ?v_86)) (or (or ?v_86 ?v_87) ?v_36)) (or (or ?v_138 ?v_31) ?v_140)) (or (or ?v_88 ?v_75) ?v_76)) (or (or ?v_47 ?v_97) ?v_45)) (or (or ?v_143 ?v_7) ?v_35)) (or (or ?v_84 ?v_98) P13)) (or (or ?v_39 ?v_31) ?v_66)) (or (or ?v_67 ?v_135) ?v_90)) (or (or ?v_134 ?v_31) ?v_45)) (or (or P3 ?v_50) ?v_118)) (or (or ?v_130 ?v_73) ?v_105)) (or (or ?v_59 ?v_92) ?v_82)) (or ?v_153 ?v_41)) (or (or ?v_43 ?v_114) ?v_68)) (or (or P4 P1) ?v_59)) (or (or ?v_144 ?v_93) P23)) (or (or ?v_145 ?v_28) ?v_39)) (or (or ?v_131 ?v_110) ?v_89)) (or (or ?v_44 ?v_64) ?v_13)) (or (or ?v_94 P18) ?v_69)) (or (or ?v_39 ?v_66) ?v_9)) (or (or ?v_138 ?v_16) ?v_84)) (or (or ?v_149 ?v_87) P15)) (or (or ?v_31 ?v_142) ?v_0)) (or (or ?v_76 ?v_116) ?v_24)) (or (or ?v_73 ?v_129) P13)) (or (or P15 ?v_43) ?v_47)) (or (or ?v_59 ?v_118) ?v_126)) (or (or ?v_139 ?v_43) ?v_37)) (or (or ?v_103 ?v_18) ?v_63)) (or (or P23 P16) P20)) (or (or ?v_36 ?v_146) ?v_125)) (or (or ?v_48 ?v_140) ?v_63)) (or (or P18 ?v_120) ?v_11)) (or (or ?v_67 ?v_21) ?v_41)) (or (or ?v_96 ?v_126) ?v_2)) (or (or P4 P14) ?v_57)) (or (or ?v_92 ?v_136) ?v_130)) (or (or ?v_12 ?v_67) ?v_15)) (or (or ?v_96 ?v_133) ?v_89)) (or (or ?v_32 ?v_133) ?v_62)) (or (or ?v_14 ?v_47) ?v_32)) (or (or P3 P17) ?v_73)) (or (or ?v_18 ?v_151) ?v_104)) (or (or ?v_19 ?v_8) ?v_6)) (or (or ?v_49 ?v_24) ?v_30)) (or (or ?v_113 ?v_91) ?v_147)) (or (or ?v_148 ?v_107) P12)) (or (or ?v_23 ?v_19) ?v_91)) (or (or ?v_27 ?v_108) P15)) (or (or P23 P17) ?v_42)) (or (or P6 ?v_95) ?v_17)) (or (or ?v_49 P10) ?v_76)) (or (or P1 ?v_95) ?v_38)) (or (or ?v_70 P10) ?v_63)) (or (or ?v_88 ?v_17) ?v_77)) (or (or ?v_31 P12) ?v_74)) (or (or ?v_58 ?v_81) ?v_94)) (or (or ?v_67 ?v_50) ?v_100)) (or (or P18 ?v_2) P2)) (or (or ?v_12 ?v_134) P21)) (or (or P16 ?v_99) ?v_0)) (or (or ?v_50 ?v_97) ?v_11)) (or (or ?v_117 ?v_79) ?v_131)) (or (or ?v_64 P13) ?v_73)) (or (or ?v_149 ?v_150) ?v_121)) (or (or ?v_54 ?v_65) ?v_40)) (or (or ?v_95 ?v_35) ?v_135)) (or (or ?v_115 ?v_26) ?v_86)) (or (or P7 ?v_93) P5)) (or (or ?v_116 ?v_45) ?v_86)) (or (or ?v_33 ?v_30) ?v_42)) (or (or ?v_66 ?v_134) P1)) (or (or ?v_73 ?v_93) ?v_146)) (or (or ?v_137 ?v_50) ?v_69)) (or (or ?v_80 P13) ?v_119)) (or (or ?v_49 ?v_66) ?v_26)) (or (or ?v_97 ?v_121) P5)) (or (or ?v_87 ?v_49) P18)) (or (or ?v_77 ?v_96) ?v_78)) (or (or P6 ?v_59) ?v_89)) (or (or ?v_22 ?v_28) P19)) (or (or ?v_142 P27) ?v_10)) (or (or P22 ?v_151) ?v_72)) (or (or ?v_71 ?v_40) ?v_44)) (or (or ?v_14 ?v_103) ?v_134)) (or (or ?v_150 P4) ?v_118)) (or (or P14 ?v_49) ?v_114)) (or (or ?v_132 ?v_57) ?v_103)) (or (or ?v_50 ?v_62) ?v_97)) (or (or ?v_81 ?v_33) ?v_117)) (or (or ?v_81 ?v_142) P0)) (or (or ?v_56 ?v_64) P23)) (or (or ?v_115 P12) ?v_134)) (or (or ?v_30 ?v_42) ?v_140)) (or (or ?v_51 ?v_101) ?v_131)) (or (or ?v_45 P5) ?v_16)) (or (or ?v_142 ?v_112) ?v_63)) (or (or ?v_71 ?v_145) ?v_58)) (or (or ?v_18 ?v_73) ?v_2)) (or (or ?v_43 P4) ?v_130)) (or (or P5 ?v_0) P26)) (or (or ?v_45 ?v_107) ?v_86)) (or (or ?v_32 ?v_74) ?v_133)) (or (or ?v_119 ?v_19) ?v_2)) (or (or ?v_34 ?v_76) ?v_38)) (or (or ?v_134 ?v_97) ?v_133)) (or (or ?v_114 ?v_134) ?v_69)) (or (or ?v_97 ?v_60) ?v_95)) (or (or P26 ?v_79) ?v_149)) (or (or ?v_109 P11) ?v_34)) (or (or ?v_32 ?v_118) P11)) (or (or ?v_56 ?v_100) ?v_129)) (or (or ?v_40 ?v_7) ?v_14)) (or (or ?v_68 P9) ?v_51)) (or (or P19 ?v_134) ?v_113)) (or (or ?v_73 ?v_150) P13)) (or (or ?v_106 ?v_9) P24)) (or (or ?v_104 ?v_120) ?v_6)) (or (or ?v_124 P29) ?v_117)) (or (or ?v_57 ?v_128) ?v_148)) (or (or P23 ?v_52) P18)) (or (or ?v_127 P25) ?v_134)) (or (or ?v_46 ?v_38) ?v_67)) (or (or ?v_16 ?v_91) P17)) (or (or ?v_85 ?v_78) ?v_11)) (or (or ?v_68 ?v_30) ?v_49)) (or (or ?v_41 ?v_151) P25)) (or (or ?v_81 ?v_60) ?v_106)) (or (or ?v_36 ?v_152) ?v_112)) (or (or ?v_24 ?v_86) ?v_28)) (or (or ?v_73 ?v_46) ?v_63)) (or (or ?v_22 ?v_142) ?v_1)) (or (or ?v_40 ?v_65) ?v_61)) (or (or ?v_34 P26) ?v_109)) (or (or ?v_72 ?v_13) ?v_151)) (or (or ?v_112 ?v_38) ?v_61)) (or (or ?v_6 ?v_82) ?v_94)) (or (or ?v_86 ?v_30) ?v_107)) (or (or ?v_141 ?v_34) ?v_63)) (or (or ?v_64 P22) ?v_145)) (or (or ?v_50 ?v_71) ?v_132)) (or (or ?v_7 P18) ?v_108)) (or (or ?v_15 ?v_151) ?v_127)) (or (or ?v_146 ?v_58) ?v_32)) (or (or ?v_140 ?v_112) ?v_0)) (or (or ?v_40 P24) ?v_93)) (or (or P4 ?v_122) ?v_98)) (or (or P25 ?v_108) ?v_118)) (or (or ?v_73 ?v_95) ?v_86)) (or (or ?v_139 ?v_68) ?v_82)) (or (or ?v_109 ?v_117) ?v_131)) (or (or P10 ?v_117) ?v_91)) (or (or ?v_10 ?v_71) ?v_62)) (or (or ?v_121 P16) ?v_111)) (or (or ?v_71 ?v_8) ?v_64)) (or (or ?v_35 ?v_69) ?v_72)) (or (or P19 ?v_110) P14)) (or (or P24 ?v_39) ?v_14)) (or (or ?v_66 ?v_37) ?v_125)) (or (or ?v_41 ?v_60) ?v_16)) (or (or P7 ?v_47) P25)) (or (or ?v_42 P6) ?v_43)) (or (or ?v_138 ?v_27) ?v_7)) (or (or ?v_136 ?v_120) ?v_62)) (or (or ?v_144 ?v_24) P0)) (or (or ?v_129 ?v_69) ?v_34)) (or (or ?v_111 P3) ?v_33)) (or (or ?v_68 P6) ?v_134)) (or (or ?v_15 ?v_75) ?v_53)) (or (or ?v_65 ?v_12) ?v_115)) (or (or ?v_12 ?v_91) P17)) (or (or P4 ?v_37) ?v_27)) (or (or P4 ?v_27) ?v_118)) (or (or ?v_10 ?v_147) P29)) (or (or ?v_39 ?v_144) P19)) (or (or ?v_51 ?v_48) ?v_104)) (or (or P18 ?v_128) ?v_147)) (or (or ?v_132 ?v_107) P4)) (or (or ?v_56 ?v_107) P17)) (or (or ?v_100 ?v_119) ?v_61)) (or (or ?v_152 ?v_36) ?v_135)) (or (or ?v_18 ?v_146) ?v_99)) (or (or P5 ?v_85) ?v_44)) (or (or ?v_119 ?v_146) P1)) (or (or ?v_127 ?v_37) ?v_81)) (or (or ?v_149 P15) ?v_114)) (or (or ?v_50 ?v_14) ?v_74)) (or (or ?v_33 ?v_28) ?v_134)) (or (or ?v_95 ?v_105) ?v_68)) (or (or P13 P18) ?v_132)) (or (or P5 ?v_152) ?v_109)) (or (or ?v_95 ?v_42) ?v_49)) (or (or ?v_44 ?v_83) P13)) (or (or ?v_111 ?v_141) ?v_147)) (or (or ?v_80 ?v_140) ?v_99)) (or (or ?v_72 ?v_37) ?v_99)) (or (or ?v_114 ?v_91) ?v_38)) (or (or ?v_104 ?v_35) ?v_50)) (or (or ?v_130 ?v_115) P13)) (or (or ?v_125 ?v_2) ?v_94)) (or (or ?v_114 ?v_27) ?v_67)) (or (or ?v_139 ?v_138) ?v_75)) (or (or ?v_33 ?v_27) ?v_59)) (or (or P8 ?v_104) P18)) (or (or ?v_0 ?v_42) P19)) (or (or ?v_107 ?v_116) ?v_87)) (or (or ?v_91 ?v_80) ?v_45)) (or (or ?v_78 ?v_73) ?v_25)) (or (or ?v_31 ?v_31) ?v_150)) (or (or ?v_127 ?v_17) ?v_94)) (or (or ?v_148 ?v_139) ?v_101)) (or (or P7 ?v_138) ?v_75)) (or (or ?v_9 ?v_64) ?v_124)) (or (or ?v_96 ?v_103) P14)) (or (or ?v_132 ?v_39) ?v_0)) (or (or ?v_40 P8) ?v_53)) (or (or ?v_85 ?v_84) ?v_152)) (or (or ?v_18 ?v_103) ?v_77)) (or (or ?v_13 P12) ?v_45)) (or (or ?v_38 ?v_46) ?v_139)) (or (or ?v_105 ?v_68) ?v_47)) (or (or ?v_23 ?v_50) ?v_67)) (or (or ?v_142 ?v_2) ?v_99)) (or (or ?v_34 ?v_94) ?v_93)) (or (or ?v_87 ?v_117) ?v_33)) (or (or ?v_88 ?v_144) ?v_76)) (or (or ?v_99 ?v_112) P23)) (or (or ?v_65 ?v_60) ?v_117)) (or ?v_153 ?v_53)) (or (or ?v_139 ?v_34) ?v_42)) (or (or ?v_57 ?v_72) ?v_137)) (or (or ?v_35 ?v_42) ?v_100)) (or (or ?v_88 P7) ?v_98)) (or (or ?v_149 P10) ?v_96)) (or (or ?v_52 P23) ?v_114)) (or (or ?v_88 ?v_41) ?v_62)) (or (or ?v_151 ?v_40) P2)))))))))))))))))))))
(check-sat)
(exit)
